
Gurobi 7.0.2 (linux64, Matlab) logging started Sun Sep  2 08:55:55 2018


Gurobi 7.0.2 (linux64) logging started Sun Sep  2 08:55:55 2018

Optimize a model with 2187 rows, 2187 columns and 32805 nonzeros
Coefficient statistics:
  Matrix range     [1e+00, 1e+00]
  Objective range  [1e+00, 1e+00]
  Bounds range     [1e+00, 1e+00]
  RHS range        [1e+00, 1e+00]
Iteration    Objective       Primal Inf.    Dual Inf.      Time
       0    1.4580000e+02   0.000000e+00   0.000000e+00      0s

Solved in 0 iterations and 0.07 seconds
Optimal objective  1.458000000e+02
